\ LP format - for model browsing. Use MPS format to capture full model detail.
Minimize
  70 b_1 + 70 b_2 + 70 b_3 + 70 b_4 + 70 b_5 + 70 b_6 + 70 b_7 + 70 b_8
   + 70 b_9 + 70 b_10 - max-slack - 20 Constant
Subject To
 constraint1_1: - 50 b_1 + 39 x_1_1 + 27 x_1_2 + 18 x_1_3 + 8 x_1_4
   + 33 x_1_5 + 33 x_1_6 + 20 x_1_7 + 5 x_1_8 + 22 x_1_9 + 40 x_1_10 <= 0
 constraint1_2: - 50 b_2 + 39 x_2_1 + 27 x_2_2 + 18 x_2_3 + 8 x_2_4
   + 33 x_2_5 + 33 x_2_6 + 20 x_2_7 + 5 x_2_8 + 22 x_2_9 + 40 x_2_10 <= 0
 constraint1_3: - 50 b_3 + 39 x_3_1 + 27 x_3_2 + 18 x_3_3 + 8 x_3_4
   + 33 x_3_5 + 33 x_3_6 + 20 x_3_7 + 5 x_3_8 + 22 x_3_9 + 40 x_3_10 <= 0
 constraint1_4: - 50 b_4 + 39 x_4_1 + 27 x_4_2 + 18 x_4_3 + 8 x_4_4
   + 33 x_4_5 + 33 x_4_6 + 20 x_4_7 + 5 x_4_8 + 22 x_4_9 + 40 x_4_10 <= 0
 constraint1_5: - 50 b_5 + 39 x_5_1 + 27 x_5_2 + 18 x_5_3 + 8 x_5_4
   + 33 x_5_5 + 33 x_5_6 + 20 x_5_7 + 5 x_5_8 + 22 x_5_9 + 40 x_5_10 <= 0
 constraint1_6: - 50 b_6 + 39 x_6_1 + 27 x_6_2 + 18 x_6_3 + 8 x_6_4
   + 33 x_6_5 + 33 x_6_6 + 20 x_6_7 + 5 x_6_8 + 22 x_6_9 + 40 x_6_10 <= 0
 constraint1_7: - 50 b_7 + 39 x_7_1 + 27 x_7_2 + 18 x_7_3 + 8 x_7_4
   + 33 x_7_5 + 33 x_7_6 + 20 x_7_7 + 5 x_7_8 + 22 x_7_9 + 40 x_7_10 <= 0
 constraint1_8: - 50 b_8 + 39 x_8_1 + 27 x_8_2 + 18 x_8_3 + 8 x_8_4
   + 33 x_8_5 + 33 x_8_6 + 20 x_8_7 + 5 x_8_8 + 22 x_8_9 + 40 x_8_10 <= 0
 constraint1_9: - 50 b_9 + 39 x_9_1 + 27 x_9_2 + 18 x_9_3 + 8 x_9_4
   + 33 x_9_5 + 33 x_9_6 + 20 x_9_7 + 5 x_9_8 + 22 x_9_9 + 40 x_9_10 <= 0
 constraint1_10: - 50 b_10 + 39 x_10_1 + 27 x_10_2 + 18 x_10_3 + 8 x_10_4
   + 33 x_10_5 + 33 x_10_6 + 20 x_10_7 + 5 x_10_8 + 22 x_10_9 + 40 x_10_10
   <= 0
 constraint2_1: x_1_1 + x_2_1 + x_3_1 + x_4_1 + x_5_1 + x_6_1 + x_7_1
   + x_8_1 + x_9_1 + x_10_1 = 1
 constraint2_2: x_1_2 + x_2_2 + x_3_2 + x_4_2 + x_5_2 + x_6_2 + x_7_2
   + x_8_2 + x_9_2 + x_10_2 = 1
 constraint2_3: x_1_3 + x_2_3 + x_3_3 + x_4_3 + x_5_3 + x_6_3 + x_7_3
   + x_8_3 + x_9_3 + x_10_3 = 1
 constraint2_4: x_1_4 + x_2_4 + x_3_4 + x_4_4 + x_5_4 + x_6_4 + x_7_4
   + x_8_4 + x_9_4 + x_10_4 = 1
 constraint2_5: x_1_5 + x_2_5 + x_3_5 + x_4_5 + x_5_5 + x_6_5 + x_7_5
   + x_8_5 + x_9_5 + x_10_5 = 1
 constraint2_6: x_1_6 + x_2_6 + x_3_6 + x_4_6 + x_5_6 + x_6_6 + x_7_6
   + x_8_6 + x_9_6 + x_10_6 = 1
 constraint2_7: x_1_7 + x_2_7 + x_3_7 + x_4_7 + x_5_7 + x_6_7 + x_7_7
   + x_8_7 + x_9_7 + x_10_7 = 1
 constraint2_8: x_1_8 + x_2_8 + x_3_8 + x_4_8 + x_5_8 + x_6_8 + x_7_8
   + x_8_8 + x_9_8 + x_10_8 = 1
 constraint2_9: x_1_9 + x_2_9 + x_3_9 + x_4_9 + x_5_9 + x_6_9 + x_7_9
   + x_8_9 + x_9_9 + x_10_9 = 1
 constraint2_10: x_1_10 + x_2_10 + x_3_10 + x_4_10 + x_5_10 + x_6_10
   + x_7_10 + x_8_10 + x_9_10 + x_10_10 = 1
 constraint3_1: - 50 b_1 + 100 delta_1 + 39 x_1_1 + 27 x_1_2 + 18 x_1_3
   + 8 x_1_4 + 33 x_1_5 + 33 x_1_6 + 20 x_1_7 + 5 x_1_8 + 22 x_1_9
   + 40 x_1_10 + max-slack <= 100
 constraint3_2: - 50 b_2 + 100 delta_2 + 39 x_2_1 + 27 x_2_2 + 18 x_2_3
   + 8 x_2_4 + 33 x_2_5 + 33 x_2_6 + 20 x_2_7 + 5 x_2_8 + 22 x_2_9
   + 40 x_2_10 + max-slack <= 100
 constraint3_3: - 50 b_3 + 100 delta_3 + 39 x_3_1 + 27 x_3_2 + 18 x_3_3
   + 8 x_3_4 + 33 x_3_5 + 33 x_3_6 + 20 x_3_7 + 5 x_3_8 + 22 x_3_9
   + 40 x_3_10 + max-slack <= 100
 constraint3_4: - 50 b_4 + 100 delta_4 + 39 x_4_1 + 27 x_4_2 + 18 x_4_3
   + 8 x_4_4 + 33 x_4_5 + 33 x_4_6 + 20 x_4_7 + 5 x_4_8 + 22 x_4_9
   + 40 x_4_10 + max-slack <= 100
 constraint3_5: - 50 b_5 + 100 delta_5 + 39 x_5_1 + 27 x_5_2 + 18 x_5_3
   + 8 x_5_4 + 33 x_5_5 + 33 x_5_6 + 20 x_5_7 + 5 x_5_8 + 22 x_5_9
   + 40 x_5_10 + max-slack <= 100
 constraint3_6: - 50 b_6 + 100 delta_6 + 39 x_6_1 + 27 x_6_2 + 18 x_6_3
   + 8 x_6_4 + 33 x_6_5 + 33 x_6_6 + 20 x_6_7 + 5 x_6_8 + 22 x_6_9
   + 40 x_6_10 + max-slack <= 100
 constraint3_7: - 50 b_7 + 100 delta_7 + 39 x_7_1 + 27 x_7_2 + 18 x_7_3
   + 8 x_7_4 + 33 x_7_5 + 33 x_7_6 + 20 x_7_7 + 5 x_7_8 + 22 x_7_9
   + 40 x_7_10 + max-slack <= 100
 constraint3_8: - 50 b_8 + 100 delta_8 + 39 x_8_1 + 27 x_8_2 + 18 x_8_3
   + 8 x_8_4 + 33 x_8_5 + 33 x_8_6 + 20 x_8_7 + 5 x_8_8 + 22 x_8_9
   + 40 x_8_10 + max-slack <= 100
 constraint3_9: - 50 b_9 + 100 delta_9 + 39 x_9_1 + 27 x_9_2 + 18 x_9_3
   + 8 x_9_4 + 33 x_9_5 + 33 x_9_6 + 20 x_9_7 + 5 x_9_8 + 22 x_9_9
   + 40 x_9_10 + max-slack <= 100
 constraint3_10: - 50 b_10 + 100 delta_10 + 39 x_10_1 + 27 x_10_2
   + 18 x_10_3 + 8 x_10_4 + 33 x_10_5 + 33 x_10_6 + 20 x_10_7 + 5 x_10_8
   + 22 x_10_9 + 40 x_10_10 + max-slack <= 100
 constraint4_1: b_1 - x_1_1 - x_1_2 - x_1_3 - x_1_4 - x_1_5 - x_1_6 - x_1_7
   - x_1_8 - x_1_9 - x_1_10 <= 0
 constraint4_2: b_2 - x_2_1 - x_2_2 - x_2_3 - x_2_4 - x_2_5 - x_2_6 - x_2_7
   - x_2_8 - x_2_9 - x_2_10 <= 0
 constraint4_3: b_3 - x_3_1 - x_3_2 - x_3_3 - x_3_4 - x_3_5 - x_3_6 - x_3_7
   - x_3_8 - x_3_9 - x_3_10 <= 0
 constraint4_4: b_4 - x_4_1 - x_4_2 - x_4_3 - x_4_4 - x_4_5 - x_4_6 - x_4_7
   - x_4_8 - x_4_9 - x_4_10 <= 0
 constraint4_5: b_5 - x_5_1 - x_5_2 - x_5_3 - x_5_4 - x_5_5 - x_5_6 - x_5_7
   - x_5_8 - x_5_9 - x_5_10 <= 0
 constraint4_6: b_6 - x_6_1 - x_6_2 - x_6_3 - x_6_4 - x_6_5 - x_6_6 - x_6_7
   - x_6_8 - x_6_9 - x_6_10 <= 0
 constraint4_7: b_7 - x_7_1 - x_7_2 - x_7_3 - x_7_4 - x_7_5 - x_7_6 - x_7_7
   - x_7_8 - x_7_9 - x_7_10 <= 0
 constraint4_8: b_8 - x_8_1 - x_8_2 - x_8_3 - x_8_4 - x_8_5 - x_8_6 - x_8_7
   - x_8_8 - x_8_9 - x_8_10 <= 0
 constraint4_9: b_9 - x_9_1 - x_9_2 - x_9_3 - x_9_4 - x_9_5 - x_9_6 - x_9_7
   - x_9_8 - x_9_9 - x_9_10 <= 0
 constraint4_10: b_10 - x_10_1 - x_10_2 - x_10_3 - x_10_4 - x_10_5 - x_10_6
   - x_10_7 - x_10_8 - x_10_9 - x_10_10 <= 0
 constraint5: delta_1 + delta_2 + delta_3 + delta_4 + delta_5 + delta_6
   + delta_7 + delta_8 + delta_9 + delta_10 = 1
 constraint6_1: - b_1 + delta_1 <= 0
 constraint6_2: - b_2 + delta_2 <= 0
 constraint6_3: - b_3 + delta_3 <= 0
 constraint6_4: - b_4 + delta_4 <= 0
 constraint6_5: - b_5 + delta_5 <= 0
 constraint6_6: - b_6 + delta_6 <= 0
 constraint6_7: - b_7 + delta_7 <= 0
 constraint6_8: - b_8 + delta_8 <= 0
 constraint6_9: - b_9 + delta_9 <= 0
 constraint6_10: - b_10 + delta_10 <= 0
Bounds
 Constant = 1
Binaries
 b_1 delta_1 x_1_1 x_1_2 x_1_3 x_1_4 x_1_5 x_1_6 x_1_7 x_1_8 x_1_9 x_1_10
 b_2 delta_2 x_2_1 x_2_2 x_2_3 x_2_4 x_2_5 x_2_6 x_2_7 x_2_8 x_2_9 x_2_10
 b_3 delta_3 x_3_1 x_3_2 x_3_3 x_3_4 x_3_5 x_3_6 x_3_7 x_3_8 x_3_9 x_3_10
 b_4 delta_4 x_4_1 x_4_2 x_4_3 x_4_4 x_4_5 x_4_6 x_4_7 x_4_8 x_4_9 x_4_10
 b_5 delta_5 x_5_1 x_5_2 x_5_3 x_5_4 x_5_5 x_5_6 x_5_7 x_5_8 x_5_9 x_5_10
 b_6 delta_6 x_6_1 x_6_2 x_6_3 x_6_4 x_6_5 x_6_6 x_6_7 x_6_8 x_6_9 x_6_10
 b_7 delta_7 x_7_1 x_7_2 x_7_3 x_7_4 x_7_5 x_7_6 x_7_7 x_7_8 x_7_9 x_7_10
 b_8 delta_8 x_8_1 x_8_2 x_8_3 x_8_4 x_8_5 x_8_6 x_8_7 x_8_8 x_8_9 x_8_10
 b_9 delta_9 x_9_1 x_9_2 x_9_3 x_9_4 x_9_5 x_9_6 x_9_7 x_9_8 x_9_9 x_9_10
 b_10 delta_10 x_10_1 x_10_2 x_10_3 x_10_4 x_10_5 x_10_6 x_10_7 x_10_8
 x_10_9 x_10_10
End
